(set-logic HORN)
(set-info :source |
    Benchmark: C_VC
    Output by Princess (http://www.philipp.ruemmer.org/princess.shtml)
|)
(set-info :status sat)
(declare-heap Heap Addr HeapObject
 defObj
 ((HeapObject 0)) (
  (
   (O_Int (getInt Int))
   (O_UInt (getUInt Int))
   (O_Addr (getAddr Addr))
   (defObj)
  )
))
(declare-fun inv_main12 (Heap Int AddrRange AddrRange Int Int) Bool)
(declare-fun inv_main15 (Heap Int AddrRange AddrRange Int Int Int) Bool)
(declare-fun inv_main16 (Heap Int AddrRange AddrRange Int Int) Bool)
(declare-fun inv_main18 (Heap Int AddrRange AddrRange Int Int) Bool)
(declare-fun inv_main21 (Heap Int AddrRange AddrRange Int Int Int Int Int) Bool)
(declare-fun inv_main6 (Heap Int AddrRange AddrRange Int Int) Bool)
(declare-fun inv_main9 (Heap Int AddrRange AddrRange Int Int) Bool)
(assert (forall ((var0 Int) (var1 AddrRange) (var2 AddrRange) (var3 Int) (var4 Int) (var5 Heap) (var6 AddrRange) (var7 Int) (var8 Int) (var9 Heap) (var10 Int) (var11 Heap)) (or (not (and (and (and (= var11 emptyHeap) (= var10 100000)) (and (and (= var9 (newBatchHeap (batchAlloc emptyHeap (O_Int var8) var10))) (= var7 var10)) (= var6 (newAddrRange (batchAlloc emptyHeap (O_Int var8) var10))))) (and (and (and (= var5 (newBatchHeap (batchAlloc emptyHeap (O_Int var4) var7))) (= var3 var7)) (= var2 var6)) (= var1 (newAddrRange (batchAlloc emptyHeap (O_Int var4) var7)))))) (inv_main6 var5 var3 var2 var1 var0 0))))
(assert (forall ((var0 Int) (var1 Int) (var2 AddrRange) (var3 AddrRange) (var4 Int) (var5 Heap)) (or (not (and (inv_main12 var5 var4 var3 var2 var1 var0) (and (not (<= 0 (+ var4 (- 1)))) (not (<= 0 (+ (+ var4 (* (- 1) var1)) (- 1))))))) (inv_main16 var5 var4 var3 var2 0 var0))))
(assert (forall ((var0 Int) (var1 Int) (var2 AddrRange) (var3 AddrRange) (var4 Heap) (var5 Int) (var6 Int) (var7 Int) (var8 Int) (var9 Int) (var10 Int) (var11 Int) (var12 AddrRange) (var13 AddrRange) (var14 Int) (var15 Heap)) (or (not (and (inv_main21 var15 var14 var13 var12 var11 var10 var9 var8 var7) (and (not (<= 0 (+ (+ var6 (* (- 1) (+ var5 1))) (- 1)))) (and (is-O_Int (read var15 (nthAddrRange var12 (+ (+ var7 (* (- 1) var11)) (- 1))))) (and (and (and (and (and (and (= var4 var15) (= var6 var14)) (= var3 var13)) (= var2 var12)) (= var5 var11)) (= var1 var10)) (= var0 (+ var9 (+ var8 (* (- 1) (getInt (read var15 (nthAddrRange var12 (+ (+ var7 (* (- 1) var11)) (- 1)))))))))))))) (inv_main16 var4 var6 var3 var2 (+ var5 1) var0))))
(assert (forall ((var0 Int) (var1 Int) (var2 Int) (var3 Int) (var4 AddrRange) (var5 AddrRange) (var6 Int) (var7 Heap) (var8 Int) (var9 Int) (var10 AddrRange) (var11 AddrRange) (var12 Int) (var13 Heap)) (or (not (and (inv_main18 var13 var12 var11 var10 var9 var8) (and (is-O_Int (read var13 (nthAddrRange var11 var9))) (and (and (and (and (and (and (and (= var7 var13) (= var6 var12)) (= var5 var11)) (= var4 var10)) (= var3 var9)) (= var2 var8)) (= var1 var8)) (= var0 (getInt (read var13 (nthAddrRange var11 var9)))))))) (inv_main21 var7 var6 var5 var4 var3 var2 var1 var0 var6))))
(assert (forall ((var0 Int) (var1 Int) (var2 AddrRange) (var3 AddrRange) (var4 Int) (var5 Heap)) (or (not (and (inv_main12 var5 var4 var3 var2 var1 var0) (and (<= 0 (+ var4 (- 1))) (not (<= 0 (+ (+ var4 (* (- 1) var1)) (- 1))))))) (inv_main18 var5 var4 var3 var2 0 var0))))
(assert (forall ((var0 Int) (var1 Int) (var2 AddrRange) (var3 AddrRange) (var4 Heap) (var5 Int) (var6 Int) (var7 Int) (var8 Int) (var9 Int) (var10 Int) (var11 Int) (var12 AddrRange) (var13 AddrRange) (var14 Int) (var15 Heap)) (or (not (and (inv_main21 var15 var14 var13 var12 var11 var10 var9 var8 var7) (and (<= 0 (+ (+ var6 (* (- 1) (+ var5 1))) (- 1))) (and (is-O_Int (read var15 (nthAddrRange var12 (+ (+ var7 (* (- 1) var11)) (- 1))))) (and (and (and (and (and (and (= var4 var15) (= var6 var14)) (= var3 var13)) (= var2 var12)) (= var5 var11)) (= var1 var10)) (= var0 (+ var9 (+ var8 (* (- 1) (getInt (read var15 (nthAddrRange var12 (+ (+ var7 (* (- 1) var11)) (- 1)))))))))))))) (inv_main18 var4 var6 var3 var2 (+ var5 1) var0))))
(assert (forall ((var0 Int) (var1 Int) (var2 AddrRange) (var3 AddrRange) (var4 Int) (var5 Heap) (var6 Int) (var7 Int) (var8 Int) (var9 AddrRange) (var10 AddrRange) (var11 Int) (var12 Heap)) (or (not (and (inv_main15 var12 var11 var10 var9 var8 var7 var6) (and (and (is-O_Int (read var12 (nthAddrRange var9 (+ (+ var6 (* (- 1) var8)) (- 1))))) (is-O_Int (read var12 (nthAddrRange var9 (+ (+ var6 (* (- 1) var8)) (- 1)))))) (and (and (and (and (and (= var5 (write var12 (nthAddrRange var9 (+ (+ var6 (* (- 1) var8)) (- 1))) (O_Int var8))) (= var4 var11)) (= var3 var10)) (= var2 var9)) (= var1 var8)) (= var0 var7))))) (inv_main12 var5 var4 var3 var2 (+ var1 1) var0))))
(assert (forall ((var0 Int) (var1 Int) (var2 AddrRange) (var3 AddrRange) (var4 Int) (var5 Heap)) (or (not (and (inv_main6 var5 var4 var3 var2 var1 var0) (not (<= 0 (+ var4 (- 1)))))) (inv_main12 var5 var4 var3 var2 0 var0))))
(assert (forall ((var0 Int) (var1 AddrRange) (var2 AddrRange) (var3 Heap) (var4 Int) (var5 Int) (var6 Int) (var7 Int) (var8 AddrRange) (var9 AddrRange) (var10 Int) (var11 Heap)) (or (not (and (inv_main9 var11 var10 var9 var8 var7 var6) (and (not (<= 0 (+ (+ var5 (* (- 1) (+ var4 1))) (- 1)))) (and (and (is-O_Int (read var11 (nthAddrRange var9 var7))) (is-O_Int (read var11 (nthAddrRange var9 var7)))) (and (and (and (and (and (= var3 (write var11 (nthAddrRange var9 var7) (O_Int var7))) (= var5 var10)) (= var2 var9)) (= var1 var8)) (= var4 var7)) (= var0 var6)))))) (inv_main12 var3 var5 var2 var1 0 var0))))
(assert (forall ((var0 Int) (var1 Int) (var2 AddrRange) (var3 AddrRange) (var4 Int) (var5 Heap)) (or (not (and (inv_main12 var5 var4 var3 var2 var1 var0) (<= 0 (+ (+ var4 (* (- 1) var1)) (- 1))))) (inv_main15 var5 var4 var3 var2 var1 var0 var4))))
(assert (forall ((var0 Int) (var1 Int) (var2 AddrRange) (var3 AddrRange) (var4 Int) (var5 Heap)) (or (not (and (inv_main6 var5 var4 var3 var2 var1 var0) (<= 0 (+ var4 (- 1))))) (inv_main9 var5 var4 var3 var2 0 var0))))
(assert (forall ((var0 Int) (var1 AddrRange) (var2 AddrRange) (var3 Heap) (var4 Int) (var5 Int) (var6 Int) (var7 Int) (var8 AddrRange) (var9 AddrRange) (var10 Int) (var11 Heap)) (or (not (and (inv_main9 var11 var10 var9 var8 var7 var6) (and (<= 0 (+ (+ var5 (* (- 1) (+ var4 1))) (- 1))) (and (and (is-O_Int (read var11 (nthAddrRange var9 var7))) (is-O_Int (read var11 (nthAddrRange var9 var7)))) (and (and (and (and (and (= var3 (write var11 (nthAddrRange var9 var7) (O_Int var7))) (= var5 var10)) (= var2 var9)) (= var1 var8)) (= var4 var7)) (= var0 var6)))))) (inv_main9 var3 var5 var2 var1 (+ var4 1) var0))))
(assert (forall ((var0 Int) (var1 Int) (var2 AddrRange) (var3 AddrRange) (var4 Int) (var5 Heap)) (not (and (inv_main9 var5 var4 var3 var2 var1 var0) (not (is-O_Int (read var5 (nthAddrRange var3 var1))))))))
(assert (forall ((var0 Int) (var1 Int) (var2 AddrRange) (var3 AddrRange) (var4 Int) (var5 Heap)) (not (and (inv_main9 var5 var4 var3 var2 var1 var0) (and (is-O_Int (read var5 (nthAddrRange var3 var1))) (not (within var3 (nthAddrRange var3 var1))))))))
(assert (forall ((var0 Int) (var1 Int) (var2 AddrRange) (var3 AddrRange) (var4 Int) (var5 Heap)) (not (and (inv_main9 var5 var4 var3 var2 var1 var0) (and (is-O_Int (read var5 (nthAddrRange var3 var1))) (not (is-O_Int (read var5 (nthAddrRange var3 var1)))))))))
(assert (forall ((var0 Int) (var1 Int) (var2 Int) (var3 AddrRange) (var4 AddrRange) (var5 Int) (var6 Heap)) (not (and (inv_main15 var6 var5 var4 var3 var2 var1 var0) (not (is-O_Int (read var6 (nthAddrRange var3 (+ (+ var0 (* (- 1) var2)) (- 1))))))))))
(assert (forall ((var0 Int) (var1 Int) (var2 Int) (var3 AddrRange) (var4 AddrRange) (var5 Int) (var6 Heap)) (not (and (inv_main15 var6 var5 var4 var3 var2 var1 var0) (and (is-O_Int (read var6 (nthAddrRange var3 (+ (+ var0 (* (- 1) var2)) (- 1))))) (not (within var3 (nthAddrRange var3 (+ (+ var0 (* (- 1) var2)) (- 1))))))))))
(assert (forall ((var0 Int) (var1 Int) (var2 Int) (var3 AddrRange) (var4 AddrRange) (var5 Int) (var6 Heap)) (not (and (inv_main15 var6 var5 var4 var3 var2 var1 var0) (and (is-O_Int (read var6 (nthAddrRange var3 (+ (+ var0 (* (- 1) var2)) (- 1))))) (not (is-O_Int (read var6 (nthAddrRange var3 (+ (+ var0 (* (- 1) var2)) (- 1)))))))))))
(assert (forall ((var0 Int) (var1 Int) (var2 AddrRange) (var3 AddrRange) (var4 Int) (var5 Heap)) (not (and (inv_main18 var5 var4 var3 var2 var1 var0) (not (is-O_Int (read var5 (nthAddrRange var3 var1))))))))
(assert (forall ((var0 Int) (var1 Int) (var2 AddrRange) (var3 AddrRange) (var4 Int) (var5 Heap)) (not (and (inv_main18 var5 var4 var3 var2 var1 var0) (and (is-O_Int (read var5 (nthAddrRange var3 var1))) (not (within var3 (nthAddrRange var3 var1))))))))
(assert (forall ((var0 Int) (var1 Int) (var2 Int) (var3 Int) (var4 Int) (var5 AddrRange) (var6 AddrRange) (var7 Int) (var8 Heap)) (not (and (inv_main21 var8 var7 var6 var5 var4 var3 var2 var1 var0) (not (is-O_Int (read var8 (nthAddrRange var5 (+ (+ var0 (* (- 1) var4)) (- 1))))))))))
(assert (forall ((var0 Int) (var1 Int) (var2 Int) (var3 Int) (var4 Int) (var5 AddrRange) (var6 AddrRange) (var7 Int) (var8 Heap)) (not (and (inv_main21 var8 var7 var6 var5 var4 var3 var2 var1 var0) (and (is-O_Int (read var8 (nthAddrRange var5 (+ (+ var0 (* (- 1) var4)) (- 1))))) (not (within var5 (nthAddrRange var5 (+ (+ var0 (* (- 1) var4)) (- 1))))))))))
(assert (forall ((var0 Int) (var1 Int) (var2 AddrRange) (var3 AddrRange) (var4 Int) (var5 Heap)) (not (and (inv_main16 var5 var4 var3 var2 var1 var0) (not (= var0 0))))))
(check-sat)
